language ESSENCE' 1.0

letting network_ExplicitWithRepetitionR6_Flag be 4
letting network_ExplicitWithRepetitionR6_Values_ExplicitVarSizeWithDummy be
        [[1, 4, 6, 8; int(1..4)], [2, 3, 6, 7; int(1..4)], [3, 5, 8, 8; int(1..4)], [8, 8, 8, 8; int(1..4)]; int(1..4)]
$ Visualisation for network_ExplicitWithRepetitionR6_Values_ExplicitVarSizeWithDummy
$ 1 4 6 8
$ 2 3 6 7
$ 3 5 8 8
$ 8 8 8 8

